CPXPARAM_MIP_Tolerances_MIPGap                   0
Lazy constraint(s) or lazy constraint callback is present.
    Disabling dual reductions (CPX_PARAM_REDUCE) in presolve.
    Disabling non-linear reductions (CPX_PARAM_PRELINEAR) in presolve.
         Disabling repeat represolve because of lazy constraint/incumbent callback.
Tried aggregator 1 time.
MIP Presolve eliminated 2999 rows and 18 columns.
MIP Presolve modified 28 coefficients.
Reduced MIP has 495 rows, 3059 columns, and 1062 nonzeros.
Reduced MIP has 2658 binaries, 0 generals, 0 SOSs, and 0 indicators.
Presolve time = 0.00 sec. (1.91 ticks)
Probing time = 0.00 sec. (0.44 ticks)
Clique table members: 128.
MIP emphasis: balance optimality and feasibility.
MIP search method: traditional branch-and-cut.
Parallel mode: none, using 1 thread.
Root relaxation solution time = 0.00 sec. (1.49 ticks)

        Nodes                                         Cuts/
   Node  Left     Objective  IInf  Best Integer    Best Bound    ItCnt     Gap         Variable B NodeID Parent  Depth

      0     0       18.0000    35                     18.0000       36         
      0     0       27.0000    23                    Cuts: 95      137         
      0     0       27.0000     3                    Cuts: 39      152         
      0     0       27.0000    11                  MIRcuts: 2      154         
*     0+    0                           60.0000       27.0000            55.00%
*     0+    0                           27.0000       27.0000             0.00%
      0     0        cutoff             27.0000       27.0000      154    0.00%                        0             0
Elapsed time = 0.17 sec. (55.20 ticks, tree = 0.01 MB, solutions = 2)

Clique cuts applied:  47
Mixed integer rounding cuts applied:  16
Gomory fractional cuts applied:  1
User cuts applied:  260

Root node processing (before b&c):
  Real time             =    0.17 sec. (55.36 ticks)
Sequential b&c:
  Real time             =    0.00 sec. (0.00 ticks)
                          ------------
Total (root+branch&cut) =    0.17 sec. (55.36 ticks)
